outputs/case_405.model.txt
transaction_purchase_asset = False
transaction_agent_commission_service = False
is_fhc_bank_insurance_securities_subsidiary_or_responsible = False
is_fhc_and_responsible_or_major_shareholder = False
board_approval_ratio = 75
is_fhc_related_enterprise_and_responsible_or_major_shareholder = False
transaction_related_third_party = True
bank_subsidiary_net_worth = 1500000001
board_attendance_ratio = 666667/10000
transaction_invest_security = False
transaction_sell_asset = False
bank_subsidiary_all_related_party_transaction_amount = 250000000
bank_subsidiary_single_related_party_transaction_amount = 150000000
is_fhc_responsible_or_major_shareholder_business_or_enterprise = False
transaction_contract_payment_service = False
bank_subsidiary_transaction_limit_compliance = True
transaction_condition_not_better_than_others = True
non_credit_transaction_compliance = True
non_credit_transaction_condition_met = True
bank_subsidiary_all_related_party_limit = 1
penalty = False
bank_subsidiary_single_related_party_limit = 1
transaction_condition_compliance = True
related_party_transaction_subject = False
/0 = [(250000000, 1500000001) -> 250000000/1500000001,
 else -> 150000000/1500000001]